(set-logic QF_BV)
(declare-fun x0 () Bool)
(declare-fun x1 () (_ BitVec 16))
(declare-fun x2 () (_ BitVec 32))
(declare-fun x3 () (_ BitVec 32))
(assert (let ((?v_268 ((_ zero_extend 16) x1))) (let ( (?v_273 (bvadd ?v_268 (_ bv0 32)))) (and true x0 true (= x2 ?v_273) true (= (bvadd (_ bv0 32) x2) x3) true (not (= ?v_273 x3)) true))))
(check-sat)
(exit)
